n_res = 5;
n_events = 102;
n_prec = 503;
source = 1;
sink = 102;
min_lvl = [-8, -5, -25, -4, -12];
max_lvl = [5, 9, -2, 14, 1];
rr = [| 0, -1, -1, 0, 0, -1, 0, -1, -2, 0, 1, -2, -2, 0, -2, -1, 0, -1, 1, 0, 0, 1, 0, 1, 1, 0, 1, 1, -2, 2, 2, 1, 0, -1, 0, 0, 2, 0, 2, -2, 0, 0, -2, 1, 0, 0, 2, 1, 0, -2, 0, 0, 0, -2, 0, 2, -1, 2, 0, 0, 1, -2, -1, 1, 0, 0, 0, 1, 0, 1, 0, -2, 0, 1, -2, -1, -1, -2, 0, 0, 0, -2, -1, -2, 1, 2, -2, 2, 0, 0, 1, 1, 2, 2, 0, 0, 1, 0, 1, -2, -2, 0
      | 0, 0, -1, 2, 2, 0, 0, -1, 1, 2, 2, 0, 0, -1, 0, 1, -1, 0, 0, 1, -1, 2, 0, -1, 0, -2, 2, 2, 1, -1, -2, 0, 0, -2, 1, 0, 0, 1, 2, 0, 1, -2, 1, 0, -2, -2, 0, -2, -1, -2, 2, 1, 0, 2, -1, -1, 0, 1, -1, -2, -1, -1, 0, 2, 0, 0, -1, -1, -1, 1, -2, 0, 1, 2, 1, 0, -2, 0, 2, -1, -2, -2, -1, 2, 0, -2, 2, 2, 0, 0, 0, 1, 2, -1, -1, 0, -1, -1, 1, 1, -1, 0
      | 0, 0, 0, 1, -1, -2, 0, -1, 1, -2, -2, 0, 2, 0, 0, 2, 0, -2, 0, -2, 2, -1, 0, 0, 0, -2, 0, 0, 0, 0, 0, 0, 0, -2, 0, -2, 0, -2, 1, -1, 1, -2, 2, -1, 0, 0, 1, 2, -2, 0, 1, 0, 0, -1, 0, -1, 0, -1, -1, -2, -1, -2, 1, 0, 0, -2, 2, -1, -1, 2, 2, 1, 0, -2, 0, -1, -1, 0, -1, -1, 0, 2, -2, 2, 0, 2, 0, 0, -1, 2, 0, 0, -1, -2, 2, -2, -1, 0, 2, -1, 1, 0
      | 0, 0, -1, 2, -1, -2, 2, 1, 2, 0, 1, 1, 0, 1, 0, -1, 2, 1, 1, 0, 2, -1, 0, 2, 0, 0, 0, 1, 0, 0, -2, -2, 1, -2, -1, 0, 0, 0, 0, -1, 0, 2, 0, 0, -1, 2, -1, 2, 2, 2, -1, 0, 0, 0, 1, 0, 2, -2, 0, -1, 1, -1, 0, 0, -2, 0, 0, -1, 2, 0, 0, 0, 0, -2, -2, 0, 0, 0, 0, -1, 0, -1, 2, 1, 0, 1, -1, 0, -2, 0, 0, 2, 0, -2, 1, 2, 0, 2, 0, 0, 2, 0
      | 0, 0, 1, 0, 0, 0, 0, -2, -1, 0, -2, 0, -1, 0, -1, -1, 2, 2, -2, 0, 2, 1, -1, 0, 1, 0, 0, 1, -1, 0, 0, -2, 0, 0, 2, 0, 0, 0, -1, -1, 0, 2, 0, 0, 0, 0, -1, 0, 0, 0, -1, 0, 2, 0, 1, -2, 0, 1, -2, 0, -1, 2, -2, 2, 0, 1, 1, 0, -2, 2, 0, 0, 0, -1, 1, -2, -1, 0, 0, 0, 0, 1, 2, -2, 0, -1, 0, 0, 1, 0, 0, 2, -1, 0, 0, -2, 0, 2, 0, 0, 0, 0 |];
prec = [| 1, 0, 4
        | 1, 0, 2
        | 1, 0, 5
        | 1, 0, 7
        | 1, 0, 3
        | 1, 0, 6
        | 2, -1, 67
        | 2, 5, 50
        | 2, 9, 49
        | 2, 6, 72
        | 3, 21, 24
        | 3, 8, 19
        | 3, 12, 66
        | 4, 22, 58
        | 5, 3, 65
        | 5, 11, 9
        | 5, 13, 89
        | 5, 17, 12
        | 6, 7, 20
        | 6, 17, 37
        | 7, 16, 27
        | 7, 23, 89
        | 7, 8, 95
        | 8, 1, 79
        | 8, 15, 43
        | 8, 13, 96
        | 8, 12, 77
        | 9, -6, 17
        | 9, 9, 84
        | 9, -3, 55
        | 9, -87, 5
        | 10, 2, 76
        | 10, 6, 86
        | 10, 0, 47
        | 10, -219, 42
        | 10, 6, 12
        | 10, 20, 57
        | 10, -261, 54
        | 11, 10, 92
        | 11, -68, 24
        | 11, -62, 3
        | 12, 9, 57
        | 12, -7, 76
        | 12, 14, 47
        | 12, 23, 86
        | 12, -5, 98
        | 12, -300, 49
        | 12, -4, 55
        | 13, 0, 62
        | 13, -42, 51
        | 13, -42, 88
        | 13, -31, 16
        | 13, -40, 75
        | 13, -44, 44
        | 13, -3, 39
        | 14, 3, 23
        | 14, 4, 64
        | 14, 3, 82
        | 14, -140, 68
        | 14, -1, 35
        | 14, 11, 90
        | 14, 0, 98
        | 14, 11, 42
        | 14, 12, 99
        | 14, 17, 49
        | 15, 5, 82
        | 15, 0, 57
        | 15, 4, 47
        | 16, 3, 97
        | 16, 2, 96
        | 16, 9, 23
        | 16, 7, 13
        | 16, -33, 44
        | 16, -1, 51
        | 16, 1, 88
        | 16, 9, 67
        | 16, -42, 75
        | 16, 9, 45
        | 17, 3, 65
        | 17, -86, 5
        | 17, -117, 52
        | 17, -95, 68
        | 17, -116, 70
        | 17, -128, 90
        | 17, 1, 84
        | 18, -2, 55
        | 18, 15, 10
        | 19, 5, 24
        | 19, 0, 94
        | 19, -2, 92
        | 19, 5, 63
        | 19, 0, 11
        | 20, -41, 6
        | 20, 8, 36
        | 20, 11, 86
        | 20, 0, 29
        | 21, 2, 27
        | 21, 10, 57
        | 21, 0, 69
        | 21, -65, 79
        | 22, 4, 12
        | 22, -56, 6
        | 22, 8, 44
        | 22, 11, 30
        | 22, -56, 38
        | 22, -46, 73
        | 22, -45, 31
        | 23, 15, 54
        | 23, 0, 30
        | 23, 9, 12
        | 23, 2, 10
        | 24, -79, 19
        | 24, 7, 94
        | 24, 3, 11
        | 24, -74, 63
        | 24, 1, 92
        | 25, 7, 27
        | 25, 14, 40
        | 25, 8, 47
        | 25, 4, 71
        | 25, 15, 89
        | 26, -76, 79
        | 26, 19, 96
        | 26, 0, 21
        | 26, -78, 87
        | 27, 7, 102
        | 27, -4, 95
        | 28, -243, 25
        | 28, 12, 43
        | 28, -3, 57
        | 28, -284, 64
        | 28, 14, 27
        | 28, -1, 18
        | 28, 11, 55
        | 29, 0, 97
        | 29, 1, 23
        | 29, -32, 36
        | 29, 2, 73
        | 29, 3, 68
        | 29, 2, 25
        | 29, -49, 38
        | 30, 3, 76
        | 30, 10, 35
        | 30, 18, 10
        | 30, -290, 67
        | 31, 0, 89
        | 31, 3, 18
        | 31, 2, 38
        | 31, 1, 55
        | 31, 0, 51
        | 31, -44, 36
        | 31, 0, 43
        | 31, 3, 35
        | 31, -49, 6
        | 32, 3, 80
        | 32, 20, 34
        | 32, 19, 89
        | 32, 3, 64
        | 32, 5, 100
        | 32, -3, 43
        | 32, -37, 58
        | 32, 0, 55
        | 32, 7, 74
        | 33, -26, 59
        | 33, -19, 60
        | 33, 3, 27
        | 33, -1, 47
        | 33, 12, 80
        | 33, 22, 68
        | 33, -12, 46
        | 34, -77, 62
        | 34, 12, 10
        | 34, 0, 41
        | 34, -131, 14
        | 34, 18, 17
        | 35, 8, 54
        | 36, 0, 53
        | 36, -28, 20
        | 36, -2, 31
        | 36, 0, 82
        | 37, 7, 96
        | 37, 10, 91
        | 37, -46, 39
        | 37, 5, 45
        | 37, 24, 83
        | 38, -32, 31
        | 38, -29, 20
        | 38, 0, 27
        | 38, 1, 51
        | 38, 0, 10
        | 38, 3, 95
        | 38, 3, 29
        | 38, 1, 22
        | 38, -35, 36
        | 39, 25, 37
        | 39, 4, 96
        | 40, 12, 10
        | 40, 5, 55
        | 40, 10, 30
        | 40, 7, 23
        | 40, 13, 57
        | 40, 8, 76
        | 41, 1, 97
        | 42, 0, 18
        | 42, 14, 28
        | 42, 13, 89
        | 42, -236, 48
        | 42, 12, 10
        | 42, 15, 86
        | 43, -6, 89
        | 43, 20, 40
        | 43, 9, 47
        | 43, 7, 95
        | 43, -3, 12
        | 43, -1, 55
        | 43, 0, 27
        | 44, 6, 75
        | 44, 6, 49
        | 44, 16, 14
        | 45, -49, 39
        | 45, 3, 83
        | 45, 16, 91
        | 45, 15, 96
        | 46, -5, 59
        | 46, 13, 17
        | 46, -3, 14
        | 47, 3, 57
        | 47, -177, 76
        | 47, -223, 84
        | 47, 0, 98
        | 47, -309, 23
        | 47, -272, 30
        | 47, -134, 10
        | 47, -224, 42
        | 47, -294, 55
        | 47, -134, 86
        | 48, 12, 89
        | 48, 14, 57
        | 48, 15, 42
        | 48, 0, 23
        | 48, 20, 30
        | 48, 17, 10
        | 49, 13, 89
        | 49, 0, 76
        | 49, 0, 64
        | 49, 9, 27
        | 49, 11, 99
        | 49, 8, 30
        | 50, 6, 48
        | 50, 8, 96
        | 50, 3, 28
        | 50, 12, 67
        | 50, 2, 85
        | 50, 1, 27
        | 50, 10, 23
        | 50, -59, 87
        | 51, -26, 16
        | 51, 9, 98
        | 51, 2, 39
        | 51, -1, 88
        | 51, 10, 67
        | 51, 12, 37
        | 51, -45, 44
        | 52, 4, 48
        | 52, 1, 15
        | 52, -7, 49
        | 53, 5, 22
        | 53, 7, 34
        | 53, -31, 38
        | 53, -45, 73
        | 54, 7, 98
        | 54, -283, 71
        | 54, -1, 10
        | 54, 8, 18
        | 54, 9, 47
        | 55, -166, 54
        | 55, -1, 76
        | 55, 6, 98
        | 55, -322, 64
        | 55, -257, 10
        | 56, 3, 99
        | 56, -1, 100
        | 56, 2, 40
        | 56, 9, 101
        | 56, 0, 78
        | 56, -3, 81
        | 57, -1, 98
        | 57, -278, 23
        | 57, -256, 55
        | 57, 9, 102
        | 57, -275, 47
        | 58, -1, 74
        | 58, -2, 32
        | 58, -7, 80
        | 58, -45, 4
        | 59, 2, 95
        | 59, 5, 35
        | 59, -26, 46
        | 59, 0, 97
        | 59, 5, 33
        | 59, 6, 30
        | 60, 0, 80
        | 60, 9, 27
        | 60, 8, 46
        | 61, -3, 98
        | 61, 0, 47
        | 61, -1, 96
        | 61, 6, 17
        | 61, 11, 28
        | 61, 6, 16
        | 62, -1, 42
        | 62, 0, 86
        | 62, 0, 81
        | 63, 11, 94
        | 63, -46, 19
        | 63, 15, 24
        | 63, 2, 11
        | 64, 2, 25
        | 64, 0, 47
        | 64, 3, 84
        | 65, 15, 48
        | 65, 25, 98
        | 65, -103, 68
        | 65, -132, 52
        | 65, -2, 10
        | 65, 24, 49
        | 65, 0, 67
        | 65, -81, 17
        | 66, 12, 92
        | 66, 18, 24
        | 66, 17, 19
        | 66, 2, 11
        | 66, 9, 63
        | 66, 0, 94
        | 67, 1, 84
        | 68, 28, 84
        | 68, -5, 14
        | 69, 10, 50
        | 69, 15, 42
        | 69, -72, 79
        | 69, -101, 21
        | 69, -73, 72
        | 69, -77, 26
        | 69, -104, 87
        | 70, 11, 12
        | 70, 27, 41
        | 70, 1, 101
        | 70, -3, 99
        | 70, 23, 48
        | 70, 12, 71
        | 70, 25, 62
        | 70, 22, 52
        | 71, 20, 28
        | 71, 4, 95
        | 71, 21, 67
        | 71, 19, 86
        | 71, 0, 40
        | 72, 0, 48
        | 72, 2, 8
        | 73, 11, 83
        | 73, -43, 6
        | 73, -5, 23
        | 73, -21, 36
        | 73, -41, 31
        | 73, 13, 57
        | 73, 15, 53
        | 73, -29, 20
        | 73, -31, 38
        | 74, 0, 23
        | 74, -34, 58
        | 74, -41, 4
        | 74, 6, 56
        | 75, 7, 61
        | 75, 15, 82
        | 75, 10, 28
        | 76, -4, 57
        | 76, 2, 47
        | 76, -222, 43
        | 76, -164, 55
        | 76, -290, 42
        | 77, 26, 21
        | 77, 24, 48
        | 77, 21, 42
        | 77, 7, 50
        | 77, 6, 10
        | 77, -5, 76
        | 77, 30, 87
        | 77, -7, 12
        | 78, 21, 60
        | 78, -29, 58
        | 78, -46, 32
        | 78, 28, 81
        | 78, 29, 43
        | 78, -31, 74
        | 78, 0, 57
        | 78, 1, 41
        | 78, -48, 56
        | 78, -8, 70
        | 79, 7, 40
        | 79, -2, 28
        | 79, 8, 67
        | 79, 2, 43
        | 79, 9, 87
        | 79, 1, 27
        | 79, 7, 77
        | 80, 0, 70
        | 80, 12, 101
        | 80, -36, 33
        | 80, -25, 59
        | 80, -25, 46
        | 81, 9, 100
        | 81, 8, 68
        | 81, -1, 82
        | 81, 1, 64
        | 81, 3, 18
        | 82, 21, 34
        | 82, 18, 98
        | 82, 15, 25
        | 82, -104, 14
        | 82, 13, 12
        | 82, -106, 70
        | 82, 2, 10
        | 83, -1, 96
        | 83, -85, 91
        | 83, -69, 45
        | 84, 11, 10
        | 84, 2, 12
        | 84, 9, 48
        | 85, -74, 21
        | 85, -66, 69
        | 85, -117, 72
        | 85, -88, 2
        | 85, -105, 8
        | 85, -97, 50
        | 85, -1, 93
        | 85, -69, 87
        | 86, 0, 76
        | 86, 0, 57
        | 86, -166, 23
        | 86, 0, 55
        | 86, 0, 98
        | 86, 1, 47
        | 86, -325, 71
        | 86, -139, 10
        | 86, -234, 54
        | 87, 15, 89
        | 87, 2, 47
        | 87, -4, 26
        | 88, 2, 39
        | 88, 6, 89
        | 88, 10, 90
        | 88, -2, 84
        | 88, 0, 52
        | 88, 8, 10
        | 88, 2, 83
        | 88, 8, 13
        | 88, -26, 75
        | 88, -1, 28
        | 88, -1, 12
        | 88, -21, 16
        | 89, 4, 95
        | 89, 1, 27
        | 90, 1, 41
        | 90, -117, 68
        | 90, 0, 52
        | 90, 3, 82
        | 90, 2, 17
        | 90, 0, 23
        | 91, -77, 37
        | 91, -57, 39
        | 91, -65, 45
        | 91, 13, 96
        | 91, 15, 83
        | 92, -89, 63
        | 92, -95, 3
        | 92, 2, 94
        | 92, -67, 24
        | 93, -107, 69
        | 93, -106, 72
        | 93, 6, 102
        | 93, -82, 21
        | 93, -87, 8
        | 93, -104, 2
        | 93, -106, 85
        | 94, -73, 92
        | 94, -70, 11
        | 94, -45, 24
        | 94, 4, 102
        | 95, 4, 102
        | 96, -53, 91
        | 96, 5, 102
        | 96, -52, 83
        | 96, -80, 39
        | 96, -64, 37
        | 97, 4, 102
        | 98, 3, 102
        | 98, -315, 42
        | 98, -268, 76
        | 98, -173, 55
        | 98, -271, 49
        | 99, 2, 102
        | 100, 9, 102
        | 101, 1, 102 |];
